1364
86 26 94 9 96 20 53 44 73 33 84 23 51 72 31 4 91 7 3 24 43 70 52 16 15 34 93 54 30 38 88 6 98 95 21 18 1 28 55 80 49 59 83 77 57 81 5 69 74 87 90 47 89 58 76 19 92 50 56 85 35 12 61 62 75 36 11 79 13 25 63 71 97 27 42 41 22 37 45 32 78 46 48 60 66 39 40 68 29 8 82 99 2 17 64 67 10 14 65 
